Pd Mo                                   
   1.0000000000000000     
     5.4997424538710558    0.0000000000000000    0.0000000000000000
     0.0000000000000000    5.4997424538710558    0.0000000000000000
     0.0000000000000000    0.0000000000000000   18.0000000000000000
   Pd   Mo
     8     1
Direct
  0.2500000000000000  0.2500000000000000  0.4325786237050622
  0.7500000000000000  0.2500000000000000  0.4325786237050622
  0.2500000000000000  0.7500000000000000  0.4325786237050622
  0.7500000000000000  0.7500000000000000  0.4325786237050622
  0.0000000000000000  0.0000000000000000  0.5406037677026134
  0.5000000000000000  0.0000000000000000  0.5406037677026134
  0.0000000000000000  0.5000000000000000  0.5406037677026134
  0.5000000000000000  0.5000000000000000  0.5406037677026134
  0.0000000000000000  0.0000000000000000  0.6072704343692834

  0.00000000E+00  0.00000000E+00  0.00000000E+00
  0.00000000E+00  0.00000000E+00  0.00000000E+00
  0.00000000E+00  0.00000000E+00  0.00000000E+00
  0.00000000E+00  0.00000000E+00  0.00000000E+00
  0.00000000E+00  0.00000000E+00  0.00000000E+00
  0.00000000E+00  0.00000000E+00  0.00000000E+00
  0.00000000E+00  0.00000000E+00  0.00000000E+00
  0.00000000E+00  0.00000000E+00  0.00000000E+00
  0.00000000E+00  0.00000000E+00  0.00000000E+00
