Pd Mo 
 1.0000000000000000
     5.4997424538710558    0.0000000000000000    0.0000000000000000
     0.0000000000000000    5.4997424538710558    0.0000000000000000
     0.0000000000000000    0.0000000000000000   18.0000000000000000
 Pd  Mo 
   8   1
Cartesian
  1.3749356134677639  1.3749356134677639  7.7864152266911724
  4.1248068404032914  1.3749356134677639  7.7864152266911724
  1.3749356134677639  4.1248068404032914  7.7864152266911724
  4.1248068404032914  4.1248068404032914  7.7864152266911724
  0.0000000000000000  0.0000000000000000  9.7308678186470559
  2.7498712269355279  0.0000000000000000  9.7308678186470559
  0.0000000000000000  2.7498712269355279  9.7308678186470559
  2.7498712269355279  2.7498712269355279  9.7308678186470559
  0.0000000000000000  0.0000000000000000 10.9308678186470551
