O atom in a box                         
   1.0000000000000000     
     7.0000000000000000    0.0000000000000000    0.0000000000000000
     0.0000000000000000    7.5000000000000000    0.0000000000000000
     0.0000000000000000    0.0000000000000000    8.0000000000000000
   O 
     1
Direct
  0.0000000000000000  0.0000000000000000  0.0000000000000000

  0.00000000E+00  0.00000000E+00  0.00000000E+00
