%chk=G:\gaussian-input\benzene.chk
# b3lyp/6-31g(d) geom=connectivity

Title Card Required

0 1
 C                 -0.15889830    0.61440677    0.00000000
 C                  1.23626170    0.61440677    0.00000000
 C                  1.93379970    1.82215777    0.00000000
 C                  1.23614570    3.03066677   -0.00119900
 C                 -0.15867930    3.03058877   -0.00167800
 C                 -0.85628030    1.82238277   -0.00068200
 H                 -0.70865730   -0.33791023    0.00045000
 H                  1.78576970   -0.33810623    0.00131500
 H                  3.03347970    1.82223777    0.00063400
 H                  1.78634570    3.98280977   -0.00125800
 H                 -0.70880130    3.98286977   -0.00263100
 H                 -1.95588430    1.82256577   -0.00086200

 1 2 1.5 6 1.5 7 1.0
 2 3 1.5 8 1.0
 3 4 1.5 9 1.0
 4 5 1.5 10 1.0
 5 6 1.5 11 1.0
 6 12 1.0
 7
 8
 9
 10
 11
 12

