%chk=toh-pai-qin.chk
%nproc=4
# hf/6-31g*  opt

Title Card Required

0 1
 C                  1.48788867   -0.02172531   -0.10282729
 C                  2.18698483    1.19283512   -0.10825668
 C                  0.09811588    2.39520561   -0.10247922
 C                 -0.60098027    1.18064518   -0.09704984
 H                  2.79422135    1.21465468   -0.98898803
 H                 -1.21526067    1.15502824   -0.97278003
 N                  1.43221575    2.29726462   -0.10761757
 N                  0.15378881    0.07621568   -0.09768894
 H                  1.77062367   -0.56367184   -0.98103847
 H                 -0.19166299    2.93335476   -0.98072958
 O                  3.00793901    1.22707086    1.06211170
 H                  3.93276710    1.23403002    0.80473148
 O                  1.87516325   -0.74093399    1.07090917
 H                  2.03663226   -1.65988759    0.84496221
 O                 -1.41252066    1.15148446    1.08000234
 H                 -2.33720552    1.22819211    0.83368174
 O                 -0.27974490    3.11948930    1.07120488
 H                 -0.55734068    4.00509547    0.82576183
 N                  2.13061351    3.51061171   -0.11304153
 O                  2.42373173    4.00464801    0.93977786
 O                  2.40649754    4.00511773   -1.17028349
 N                 -0.54460896   -1.13713140   -0.09226498
 O                 -0.83377347   -1.62401096    0.96497247
 O                 -0.82444673   -1.63879419   -1.14508692


