H2O _2                                  
  0.52917999999999998     
    12.0000000000000000    0.0000000000000000    0.0000000000000000
     0.0000000000000000   12.0000000000000000    0.0000000000000000
     0.0000000000000000    0.0000000000000000   12.0000000000000000
   O    H 
     1     2
Selective dynamics
Direct
  0.8728597529665633  0.1888412731738745  0.0000000000000000   T   T   F
  0.7558313440800368  0.2944431664286828  0.0000000000000000   T   T   F
  0.7918717540107532  0.0587364438010034  0.0000000000000000   T   T   F

 -0.54748173E-02  0.10561301E-01  0.00000000E+00
 -0.24616507E-01  0.62184041E-01  0.00000000E+00
 -0.58330083E-01 -0.14446699E-01  0.00000000E+00

           1
   1.0000000000000000     
  0.10000000E+01  0.00000000E+00  0.00000000E+00  0.00000000E+00
  0.87199760E+00  0.19050443E+00  0.00000000E+00
  0.75195483E+00  0.30423568E+00  0.00000000E+00
  0.78268615E+00  0.56461430E-01  0.00000000E+00
 -0.80603166E-03  0.16246114E-02  0.00000000E+00
 -0.46500739E-02  0.10240077E-01  0.00000000E+00
 -0.93133478E-02 -0.21003275E-02  0.00000000E+00
  0.00000000E+00  0.00000000E+00  0.00000000E+00
  0.00000000E+00  0.00000000E+00  0.00000000E+00
  0.00000000E+00  0.00000000E+00  0.00000000E+00
