Pd Mo                                   
   1.0000000000000000     
     5.4997424538710558    0.0000000000000000    0.0000000000000000
     2.7498712269355279    4.7629166793240998    0.0000000000000000
     0.0000000000000000    0.0000000000000000   24.4905209095687795
   Pd   Mo
    12     1
Direct
  0.1666666666666643  0.1666666666666643  0.4083212454698284
  0.6666666666666643  0.1666666666666643  0.4083212454698284
  0.1666666666666643  0.6666666666666643  0.4083212454698284
  0.6666666666666643  0.6666666666666643  0.4083212454698284
  0.8333333333333357  0.3333333333333357  0.5000000000000000
  0.3333333333333357  0.3333333333333357  0.5000000000000000
  0.8333333333333357  0.8333333333333357  0.5000000000000000
  0.3333333333333357  0.8333333333333357  0.5000000000000000
  0.0000000000000000  0.0000000000000000  0.5916787545301716
  0.5000000000000000  0.0000000000000000  0.5916787545301716
  0.0000000000000000  0.5000000000000000  0.5916787545301716
  0.5000000000000000  0.5000000000000000  0.5916787545301716
  0.1666666666666643  0.1666666666666643  0.6406773039865499

  0.00000000E+00  0.00000000E+00  0.00000000E+00
  0.00000000E+00  0.00000000E+00  0.00000000E+00
  0.00000000E+00  0.00000000E+00  0.00000000E+00
  0.00000000E+00  0.00000000E+00  0.00000000E+00
  0.00000000E+00  0.00000000E+00  0.00000000E+00
  0.00000000E+00  0.00000000E+00  0.00000000E+00
  0.00000000E+00  0.00000000E+00  0.00000000E+00
  0.00000000E+00  0.00000000E+00  0.00000000E+00
  0.00000000E+00  0.00000000E+00  0.00000000E+00
  0.00000000E+00  0.00000000E+00  0.00000000E+00
  0.00000000E+00  0.00000000E+00  0.00000000E+00
  0.00000000E+00  0.00000000E+00  0.00000000E+00
  0.00000000E+00  0.00000000E+00  0.00000000E+00
