Pd Mo 
 1.0000000000000000
     5.4997424538710558    0.0000000000000000    0.0000000000000000
     2.7498712269355279    4.7629166793240998    0.0000000000000000
     0.0000000000000000    0.0000000000000000   24.4905209095687795
 Pd  Mo 
  12   1
Cartesian
  1.3749356134677639  0.7938194465540166 10.0000000000000018
  4.1248068404032914  0.7938194465540166 10.0000000000000018
  2.7498712269355279  3.1752777862160664 10.0000000000000018
  5.4997424538710558  3.1752777862160664 10.0000000000000018
 -0.0000000000000001  1.5876388931080332 12.2452604547843915
  2.7498712269355279  1.5876388931080332 12.2452604547843915
  1.3749356134677637  3.9690972327700829 12.2452604547843915
  4.1248068404032923  3.9690972327700829 12.2452604547843915
  0.0000000000000000  0.0000000000000000 14.4905209095687812
  2.7498712269355279  0.0000000000000000 14.4905209095687812
  1.3749356134677639  2.3814583396620499 14.4905209095687812
  4.1248068404032914  2.3814583396620499 14.4905209095687812
  1.3749356134677639  0.7938194465540166 15.6905209095687805
