O atom in a box                         
   1.0000000000000000     
     8.0000000000000000    0.0000000000000000    0.0000000000000000
     0.0000000000000000    8.0000000000000000    0.0000000000000000
     0.0000000000000000    0.0000000000000000    8.0000000000000000
   O 
     2
Direct
 -0.0000000000000000 -0.0000000000000000 -0.0009136080649698
  0.0000000000000000  0.0000000000000000  0.1534136080649732

  0.00000000E+00  0.00000000E+00  0.00000000E+00
  0.00000000E+00  0.00000000E+00  0.00000000E+00
