H3 C1                                   
   1.00000000000000     
    15.0000000000000000    0.0000000000000000    0.0000000000000000
     0.0000000000000000   15.0000000000000000    0.0000000000000000
     0.0000000000000000    0.0000000000000000   15.0000000000000000
   H    C 
     3     1
Direct
  0.0000000000000000  0.0725137496397966  0.0099299999999971
  0.9372000256218088  0.9637503705728586  0.0099299999999971
  0.0627999743781913  0.9637503705728586  0.0099299999999971
  0.0000000000000000 -0.0000244907855171  0.0099299999999971
 
  0.00000000E+00  0.00000000E+00  0.00000000E+00
  0.00000000E+00  0.00000000E+00  0.00000000E+00
  0.00000000E+00  0.00000000E+00  0.00000000E+00
  0.00000000E+00  0.00000000E+00  0.00000000E+00
