O atom in a box                         
   1.0000000000000000     
     8.0000000000000000    0.0000000000000000    0.0000000000000000
     0.0000000000000000    8.0000000000000000    0.0000000000000000
     0.0000000000000000    0.0000000000000000    8.0000000000000000
   O    C 
     1     1
Direct
  0.0000000000000000  0.0000000000000000 -0.0016335544557579
  0.0000000000000000  0.0000000000000000  0.1416335544557585

  0.00000000E+00  0.00000000E+00  0.00000000E+00
  0.00000000E+00  0.00000000E+00  0.00000000E+00
